\* The_truck_routing_problem_(closed_north_centre) *\
Minimize
routing_cost: 666.666666667 Extra_trucks + 700 Pattern_0 + 700 Pattern_1
 + 700 Pattern_10 + 700 Pattern_100 + 525 Pattern_101 + 700 Pattern_102
 + 700 Pattern_103 + 700 Pattern_104 + 700 Pattern_105 + 700 Pattern_106
 + 700 Pattern_107 + 350 Pattern_108 + 700 Pattern_109 + 525 Pattern_11
 + 525 Pattern_110 + 700 Pattern_111 + 525 Pattern_112 + 700 Pattern_113
 + 525 Pattern_114 + 700 Pattern_115 + 700 Pattern_116 + 350 Pattern_117
 + 525 Pattern_118 + 700 Pattern_119 + 700 Pattern_12 + 700 Pattern_120
 + 525 Pattern_121 + 700 Pattern_122 + 350 Pattern_123 + 700 Pattern_124
 + 700 Pattern_125 + 525 Pattern_126 + 700 Pattern_127 + 700 Pattern_128
 + 525 Pattern_129 + 700 Pattern_13 + 700 Pattern_130 + 525 Pattern_131
 + 700 Pattern_132 + 700 Pattern_133 + 700 Pattern_134 + 525 Pattern_135
 + 700 Pattern_136 + 700 Pattern_137 + 350 Pattern_138 + 700 Pattern_139
 + 700 Pattern_14 + 700 Pattern_140 + 525 Pattern_141 + 700 Pattern_142
 + 350 Pattern_143 + 700 Pattern_144 + 700 Pattern_145 + 700 Pattern_146
 + 700 Pattern_147 + 700 Pattern_148 + 525 Pattern_149 + 700 Pattern_15
 + 525 Pattern_150 + 700 Pattern_151 + 700 Pattern_152 + 700 Pattern_153
 + 700 Pattern_154 + 350 Pattern_155 + 700 Pattern_156 + 700 Pattern_157
 + 350 Pattern_158 + 700 Pattern_159 + 700 Pattern_16 + 700 Pattern_160
 + 700 Pattern_161 + 700 Pattern_162 + 700 Pattern_163 + 700 Pattern_164
 + 525 Pattern_165 + 525 Pattern_166 + 700 Pattern_167 + 700 Pattern_168
 + 700 Pattern_169 + 350 Pattern_17 + 700 Pattern_170 + 525 Pattern_171
 + 700 Pattern_172 + 700 Pattern_173 + 700 Pattern_174 + 700 Pattern_175
 + 700 Pattern_176 + 350 Pattern_177 + 525 Pattern_178 + 700 Pattern_179
 + 700 Pattern_18 + 525 Pattern_180 + 525 Pattern_181 + 700 Pattern_182
 + 700 Pattern_183 + 700 Pattern_184 + 525 Pattern_185 + 700 Pattern_186
 + 525 Pattern_187 + 700 Pattern_188 + 525 Pattern_189 + 700 Pattern_19
 + 700 Pattern_190 + 700 Pattern_191 + 700 Pattern_192 + 700 Pattern_193
 + 350 Pattern_194 + 700 Pattern_195 + 700 Pattern_196 + 350 Pattern_197
 + 525 Pattern_2 + 350 Pattern_20 + 525 Pattern_21 + 525 Pattern_22
 + 700 Pattern_23 + 525 Pattern_24 + 700 Pattern_25 + 700 Pattern_26
 + 700 Pattern_27 + 700 Pattern_28 + 700 Pattern_29 + 525 Pattern_3
 + 700 Pattern_30 + 525 Pattern_31 + 700 Pattern_32 + 525 Pattern_33
 + 700 Pattern_34 + 700 Pattern_35 + 700 Pattern_36 + 525 Pattern_37
 + 700 Pattern_38 + 700 Pattern_39 + 700 Pattern_4 + 525 Pattern_40
 + 700 Pattern_41 + 700 Pattern_42 + 700 Pattern_43 + 700 Pattern_44
 + 700 Pattern_45 + 700 Pattern_46 + 700 Pattern_47 + 700 Pattern_48
 + 700 Pattern_49 + 350 Pattern_5 + 525 Pattern_50 + 700 Pattern_51
 + 700 Pattern_52 + 700 Pattern_53 + 700 Pattern_54 + 700 Pattern_55
 + 350 Pattern_56 + 700 Pattern_57 + 700 Pattern_58 + 350 Pattern_59
 + 700 Pattern_6 + 700 Pattern_60 + 700 Pattern_61 + 700 Pattern_62
 + 700 Pattern_63 + 700 Pattern_64 + 700 Pattern_65 + 700 Pattern_66
 + 525 Pattern_67 + 700 Pattern_68 + 700 Pattern_69 + 700 Pattern_7
 + 525 Pattern_70 + 700 Pattern_71 + 700 Pattern_72 + 700 Pattern_73
 + 700 Pattern_74 + 350 Pattern_75 + 700 Pattern_76 + 700 Pattern_77
 + 350 Pattern_78 + 700 Pattern_79 + 700 Pattern_8 + 700 Pattern_80
 + 700 Pattern_81 + 700 Pattern_82 + 700 Pattern_83 + 700 Pattern_84
 + 700 Pattern_85 + 700 Pattern_86 + 700 Pattern_87 + 525 Pattern_88
 + 700 Pattern_89 + 700 Pattern_9 + 525 Pattern_90 + 700 Pattern_91
 + 700 Pattern_92 + 700 Pattern_93 + 525 Pattern_94 + 700 Pattern_95
 + 700 Pattern_96 + 350 Pattern_97 + 525 Pattern_98 + 525 Pattern_99
 + 1500 Wet_Leases
Subject To
Satisfying_demand_for_Noel_Leeming_Albany: Pattern_1 + Pattern_119
 + Pattern_139 + Pattern_161 + Pattern_178 + Pattern_23 + Pattern_41
 + Pattern_62 + Pattern_80 + Pattern_98 = 1
Satisfying_demand_for_Noel_Leeming_Botany: Pattern_115 + Pattern_138
 + Pattern_157 + Pattern_176 + Pattern_19 + Pattern_195 + Pattern_40
 + Pattern_58 + Pattern_76 + Pattern_96 = 1
Satisfying_demand_for_Noel_Leeming_Glenfield_Clearance: Pattern_0
 + Pattern_100 + Pattern_121 + Pattern_139 + Pattern_161 + Pattern_180
 + Pattern_21 + Pattern_43 + Pattern_60 + Pattern_81 = 1
Satisfying_demand_for_Noel_Leeming_Henderson: Pattern_106 + Pattern_126
 + Pattern_146 + Pattern_166 + Pattern_185 + Pattern_30 + Pattern_47
 + Pattern_6 + Pattern_66 + Pattern_86 = 1
Satisfying_demand_for_Noel_Leeming_Lunn_Avenue: Pattern_112 + Pattern_133
 + Pattern_154 + Pattern_16 + Pattern_173 + Pattern_192 + Pattern_34
 + Pattern_53 + Pattern_72 + Pattern_94 = 1
Satisfying_demand_for_Noel_Leeming_Manukau_Supa_Centre: Pattern_117
 + Pattern_136 + Pattern_156 + Pattern_175 + Pattern_18 + Pattern_196
 + Pattern_38 + Pattern_59 + Pattern_77 + Pattern_97 = 1
Satisfying_demand_for_Noel_Leeming_Manukau_Westfield: Pattern_116
 + Pattern_136 + Pattern_157 + Pattern_175 + Pattern_18 + Pattern_195
 + Pattern_38 + Pattern_57 + Pattern_77 + Pattern_95 = 1
Satisfying_demand_for_Noel_Leeming_Massey: Pattern_10 + Pattern_103
 + Pattern_127 + Pattern_148 + Pattern_166 + Pattern_188 + Pattern_29
 + Pattern_49 + Pattern_69 + Pattern_84 = 1
Satisfying_demand_for_Noel_Leeming_New_Lynn: Pattern_108 + Pattern_126
 + Pattern_144 + Pattern_167 + Pattern_185 + Pattern_28 + Pattern_46
 + Pattern_65 + Pattern_7 + Pattern_87 = 1
Satisfying_demand_for_Noel_Leeming_Newmarket: Pattern_113 + Pattern_133
 + Pattern_153 + Pattern_16 + Pattern_172 + Pattern_193 + Pattern_34
 + Pattern_54 + Pattern_72 + Pattern_91 = 1
Satisfying_demand_for_Noel_Leeming_Ormiston: Pattern_116 + Pattern_137
 + Pattern_156 + Pattern_177 + Pattern_18 + Pattern_195 + Pattern_40
 + Pattern_57 + Pattern_76 + Pattern_95 = 1
Satisfying_demand_for_Noel_Leeming_Papakura: Pattern_102 + Pattern_123
 + Pattern_143 + Pattern_162 + Pattern_182 + Pattern_25 + Pattern_44
 + Pattern_5 + Pattern_63 + Pattern_82 = 1
Satisfying_demand_for_Noel_Leeming_Papatoetoe: Pattern_109 + Pattern_13
 + Pattern_130 + Pattern_151 + Pattern_169 + Pattern_189 + Pattern_33
 + Pattern_51 + Pattern_71 + Pattern_89 = 1
Satisfying_demand_for_Noel_Leeming_Penrose_Clearance: Pattern_110 + Pattern_13
 + Pattern_131 + Pattern_151 + Pattern_169 + Pattern_190 + Pattern_32
 + Pattern_51 + Pattern_71 + Pattern_90 = 1
Satisfying_demand_for_Noel_Leeming_Queen_Street: Pattern_111 + Pattern_132
 + Pattern_15 + Pattern_155 + Pattern_171 + Pattern_194 + Pattern_36
 + Pattern_54 + Pattern_72 + Pattern_92 = 1
Satisfying_demand_for_Noel_Leeming_Royal_Oak: Pattern_111 + Pattern_134
 + Pattern_153 + Pattern_16 + Pattern_171 + Pattern_192 + Pattern_34
 + Pattern_54 + Pattern_75 + Pattern_94 = 1
Satisfying_demand_for_Noel_Leeming_St_Lukes_Mega: Pattern_103 + Pattern_128
 + Pattern_148 + Pattern_168 + Pattern_183 + Pattern_31 + Pattern_47
 + Pattern_65 + Pattern_7 + Pattern_85 = 1
Satisfying_demand_for_Noel_Leeming_St_Lukes_Westfield: Pattern_107
 + Pattern_125 + Pattern_147 + Pattern_163 + Pattern_186 + Pattern_26
 + Pattern_45 + Pattern_68 + Pattern_8 + Pattern_83 = 1
Satisfying_demand_for_Noel_Leeming_Sylvia_Park: Pattern_109 + Pattern_13
 + Pattern_130 + Pattern_150 + Pattern_169 + Pattern_190 + Pattern_32
 + Pattern_51 + Pattern_70 + Pattern_89 = 1
Satisfying_demand_for_Noel_Leeming_Wairau_Park: Pattern_1 + Pattern_100
 + Pattern_120 + Pattern_139 + Pattern_160 + Pattern_180 + Pattern_21
 + Pattern_42 + Pattern_61 + Pattern_79 = 1
Satisfying_demand_for_The_Warehouse_Airport: Pattern_109 + Pattern_12
 + Pattern_130 + Pattern_151 + Pattern_170 + Pattern_189 + Pattern_33
 + Pattern_52 + Pattern_71 + Pattern_90 = 1
Satisfying_demand_for_The_Warehouse_Albany: Pattern_118 + Pattern_140
 + Pattern_159 + Pattern_179 + Pattern_23 + Pattern_3 + Pattern_41
 + Pattern_62 + Pattern_79 + Pattern_99 = 1
Satisfying_demand_for_The_Warehouse_Atrium: Pattern_111 + Pattern_132
 + Pattern_14 + Pattern_152 + Pattern_174 + Pattern_191 + Pattern_35
 + Pattern_53 + Pattern_73 + Pattern_93 = 1
Satisfying_demand_for_The_Warehouse_Botany_Downs: Pattern_115 + Pattern_137
 + Pattern_157 + Pattern_176 + Pattern_19 + Pattern_196 + Pattern_38
 + Pattern_58 + Pattern_78 + Pattern_96 = 1
Satisfying_demand_for_The_Warehouse_Clendon: Pattern_102 + Pattern_122
 + Pattern_142 + Pattern_162 + Pattern_182 + Pattern_25 + Pattern_4
 + Pattern_44 + Pattern_63 + Pattern_82 = 1
Satisfying_demand_for_The_Warehouse_Glenfield_Mall: Pattern_101 + Pattern_120
 + Pattern_141 + Pattern_160 + Pattern_181 + Pattern_2 + Pattern_22
 + Pattern_42 + Pattern_60 + Pattern_81 = 1
Satisfying_demand_for_The_Warehouse_Lincoln_Road: Pattern_105 + Pattern_124
 + Pattern_147 + Pattern_163 + Pattern_186 + Pattern_27 + Pattern_49
 + Pattern_64 + Pattern_83 + Pattern_9 = 1
Satisfying_demand_for_The_Warehouse_Lunn_Avenue: Pattern_112 + Pattern_133
 + Pattern_152 + Pattern_17 + Pattern_174 + Pattern_192 + Pattern_36
 + Pattern_56 + Pattern_74 + Pattern_91 = 1
Satisfying_demand_for_The_Warehouse_Manukau: Pattern_116 + Pattern_136
 + Pattern_156 + Pattern_176 + Pattern_19 + Pattern_197 + Pattern_39
 + Pattern_58 + Pattern_76 + Pattern_95 = 1
Satisfying_demand_for_The_Warehouse_Milford: Pattern_0 + Pattern_100
 + Pattern_119 + Pattern_140 + Pattern_159 + Pattern_179 + Pattern_24
 + Pattern_43 + Pattern_61 + Pattern_80 = 1
Satisfying_demand_for_The_Warehouse_Mt_Roskill: Pattern_104 + Pattern_124
 + Pattern_145 + Pattern_164 + Pattern_184 + Pattern_28 + Pattern_48
 + Pattern_6 + Pattern_69 + Pattern_84 = 1
Satisfying_demand_for_The_Warehouse_New_Lynn: Pattern_106 + Pattern_11
 + Pattern_125 + Pattern_149 + Pattern_165 + Pattern_183 + Pattern_29
 + Pattern_46 + Pattern_68 + Pattern_85 = 1
Satisfying_demand_for_The_Warehouse_Newmarket: Pattern_113 + Pattern_134
 + Pattern_15 + Pattern_153 + Pattern_173 + Pattern_193 + Pattern_37
 + Pattern_55 + Pattern_73 + Pattern_93 = 1
Satisfying_demand_for_The_Warehouse_Pakuranga: Pattern_115 + Pattern_137
 + Pattern_158 + Pattern_175 + Pattern_196 + Pattern_20 + Pattern_39
 + Pattern_57 + Pattern_77 + Pattern_96 = 1
Satisfying_demand_for_The_Warehouse_Royal_Oak: Pattern_114 + Pattern_135
 + Pattern_14 + Pattern_154 + Pattern_172 + Pattern_191 + Pattern_35
 + Pattern_55 + Pattern_74 + Pattern_92 = 1
Satisfying_demand_for_The_Warehouse_St_Lukes: Pattern_104 + Pattern_127
 + Pattern_144 + Pattern_167 + Pattern_184 + Pattern_27 + Pattern_50
 + Pattern_64 + Pattern_87 + Pattern_9 = 1
Satisfying_demand_for_The_Warehouse_Sylvia_Park: Pattern_110 + Pattern_12
 + Pattern_131 + Pattern_150 + Pattern_170 + Pattern_190 + Pattern_32
 + Pattern_52 + Pattern_70 + Pattern_89 = 1
Satisfying_demand_for_The_Warehouse_Takanini: Pattern_102 + Pattern_122
 + Pattern_142 + Pattern_162 + Pattern_182 + Pattern_25 + Pattern_4
 + Pattern_44 + Pattern_63 + Pattern_82 = 1
Satisfying_demand_for_The_Warehouse_WestCity: Pattern_107 + Pattern_129
 + Pattern_146 + Pattern_164 + Pattern_187 + Pattern_26 + Pattern_45
 + Pattern_66 + Pattern_8 + Pattern_86 = 1
Satisfying_demand_for_The_Warehouse_Westgate: Pattern_10 + Pattern_105
 + Pattern_128 + Pattern_145 + Pattern_168 + Pattern_188 + Pattern_30
 + Pattern_48 + Pattern_67 + Pattern_88 = 1
max_number_of_shifts: - 2 Extra_trucks + Pattern_0 + Pattern_1 + Pattern_10
 + Pattern_100 + Pattern_101 + Pattern_102 + Pattern_103 + Pattern_104
 + Pattern_105 + Pattern_106 + Pattern_107 + Pattern_108 + Pattern_109
 + Pattern_11 + Pattern_110 + Pattern_111 + Pattern_112 + Pattern_113
 + Pattern_114 + Pattern_115 + Pattern_116 + Pattern_117 + Pattern_118
 + Pattern_119 + Pattern_12 + Pattern_120 + Pattern_121 + Pattern_122
 + Pattern_123 + Pattern_124 + Pattern_125 + Pattern_126 + Pattern_127
 + Pattern_128 + Pattern_129 + Pattern_13 + Pattern_130 + Pattern_131
 + Pattern_132 + Pattern_133 + Pattern_134 + Pattern_135 + Pattern_136
 + Pattern_137 + Pattern_138 + Pattern_139 + Pattern_14 + Pattern_140
 + Pattern_141 + Pattern_142 + Pattern_143 + Pattern_144 + Pattern_145
 + Pattern_146 + Pattern_147 + Pattern_148 + Pattern_149 + Pattern_15
 + Pattern_150 + Pattern_151 + Pattern_152 + Pattern_153 + Pattern_154
 + Pattern_155 + Pattern_156 + Pattern_157 + Pattern_158 + Pattern_159
 + Pattern_16 + Pattern_160 + Pattern_161 + Pattern_162 + Pattern_163
 + Pattern_164 + Pattern_165 + Pattern_166 + Pattern_167 + Pattern_168
 + Pattern_169 + Pattern_17 + Pattern_170 + Pattern_171 + Pattern_172
 + Pattern_173 + Pattern_174 + Pattern_175 + Pattern_176 + Pattern_177
 + Pattern_178 + Pattern_179 + Pattern_18 + Pattern_180 + Pattern_181
 + Pattern_182 + Pattern_183 + Pattern_184 + Pattern_185 + Pattern_186
 + Pattern_187 + Pattern_188 + Pattern_189 + Pattern_19 + Pattern_190
 + Pattern_191 + Pattern_192 + Pattern_193 + Pattern_194 + Pattern_195
 + Pattern_196 + Pattern_197 + Pattern_2 + Pattern_20 + Pattern_21
 + Pattern_22 + Pattern_23 + Pattern_24 + Pattern_25 + Pattern_26 + Pattern_27
 + Pattern_28 + Pattern_29 + Pattern_3 + Pattern_30 + Pattern_31 + Pattern_32
 + Pattern_33 + Pattern_34 + Pattern_35 + Pattern_36 + Pattern_37 + Pattern_38
 + Pattern_39 + Pattern_4 + Pattern_40 + Pattern_41 + Pattern_42 + Pattern_43
 + Pattern_44 + Pattern_45 + Pattern_46 + Pattern_47 + Pattern_48 + Pattern_49
 + Pattern_5 + Pattern_50 + Pattern_51 + Pattern_52 + Pattern_53 + Pattern_54
 + Pattern_55 + Pattern_56 + Pattern_57 + Pattern_58 + Pattern_59 + Pattern_6
 + Pattern_60 + Pattern_61 + Pattern_62 + Pattern_63 + Pattern_64 + Pattern_65
 + Pattern_66 + Pattern_67 + Pattern_68 + Pattern_69 + Pattern_7 + Pattern_70
 + Pattern_71 + Pattern_72 + Pattern_73 + Pattern_74 + Pattern_75 + Pattern_76
 + Pattern_77 + Pattern_78 + Pattern_79 + Pattern_8 + Pattern_80 + Pattern_81
 + Pattern_82 + Pattern_83 + Pattern_84 + Pattern_85 + Pattern_86 + Pattern_87
 + Pattern_88 + Pattern_89 + Pattern_9 + Pattern_90 + Pattern_91 + Pattern_92
 + Pattern_93 + Pattern_94 + Pattern_95 + Pattern_96 + Pattern_97 + Pattern_98
 + Pattern_99 - Wet_Leases <= 50
Bounds
0 <= Extra_trucks <= 5
0 <= Wet_Leases <= 9999
Generals
Extra_trucks
Wet_Leases
Binaries
Pattern_0
Pattern_1
Pattern_10
Pattern_100
Pattern_101
Pattern_102
Pattern_103
Pattern_104
Pattern_105
Pattern_106
Pattern_107
Pattern_108
Pattern_109
Pattern_11
Pattern_110
Pattern_111
Pattern_112
Pattern_113
Pattern_114
Pattern_115
Pattern_116
Pattern_117
Pattern_118
Pattern_119
Pattern_12
Pattern_120
Pattern_121
Pattern_122
Pattern_123
Pattern_124
Pattern_125
Pattern_126
Pattern_127
Pattern_128
Pattern_129
Pattern_13
Pattern_130
Pattern_131
Pattern_132
Pattern_133
Pattern_134
Pattern_135
Pattern_136
Pattern_137
Pattern_138
Pattern_139
Pattern_14
Pattern_140
Pattern_141
Pattern_142
Pattern_143
Pattern_144
Pattern_145
Pattern_146
Pattern_147
Pattern_148
Pattern_149
Pattern_15
Pattern_150
Pattern_151
Pattern_152
Pattern_153
Pattern_154
Pattern_155
Pattern_156
Pattern_157
Pattern_158
Pattern_159
Pattern_16
Pattern_160
Pattern_161
Pattern_162
Pattern_163
Pattern_164
Pattern_165
Pattern_166
Pattern_167
Pattern_168
Pattern_169
Pattern_17
Pattern_170
Pattern_171
Pattern_172
Pattern_173
Pattern_174
Pattern_175
Pattern_176
Pattern_177
Pattern_178
Pattern_179
Pattern_18
Pattern_180
Pattern_181
Pattern_182
Pattern_183
Pattern_184
Pattern_185
Pattern_186
Pattern_187
Pattern_188
Pattern_189
Pattern_19
Pattern_190
Pattern_191
Pattern_192
Pattern_193
Pattern_194
Pattern_195
Pattern_196
Pattern_197
Pattern_2
Pattern_20
Pattern_21
Pattern_22
Pattern_23
Pattern_24
Pattern_25
Pattern_26
Pattern_27
Pattern_28
Pattern_29
Pattern_3
Pattern_30
Pattern_31
Pattern_32
Pattern_33
Pattern_34
Pattern_35
Pattern_36
Pattern_37
Pattern_38
Pattern_39
Pattern_4
Pattern_40
Pattern_41
Pattern_42
Pattern_43
Pattern_44
Pattern_45
Pattern_46
Pattern_47
Pattern_48
Pattern_49
Pattern_5
Pattern_50
Pattern_51
Pattern_52
Pattern_53
Pattern_54
Pattern_55
Pattern_56
Pattern_57
Pattern_58
Pattern_59
Pattern_6
Pattern_60
Pattern_61
Pattern_62
Pattern_63
Pattern_64
Pattern_65
Pattern_66
Pattern_67
Pattern_68
Pattern_69
Pattern_7
Pattern_70
Pattern_71
Pattern_72
Pattern_73
Pattern_74
Pattern_75
Pattern_76
Pattern_77
Pattern_78
Pattern_79
Pattern_8
Pattern_80
Pattern_81
Pattern_82
Pattern_83
Pattern_84
Pattern_85
Pattern_86
Pattern_87
Pattern_88
Pattern_89
Pattern_9
Pattern_90
Pattern_91
Pattern_92
Pattern_93
Pattern_94
Pattern_95
Pattern_96
Pattern_97
Pattern_98
Pattern_99
End
